%intermedia, con solapamiento parcial de mantenimientos
n_jobs = 6;
n_machines = 4;
n_ops_for = [3, 3, 2, 3, 2, 3];

dur = array2d(1..6, 1..3, [
  3, 5, 2,
  4, 3, 6,
  5, 2, 0,
  3, 4, 5,
  2, 6, 0,
  4, 2, 3
]);

machine_for = array2d(1..6, 1..3, [
  1, 2, 3,
  2, 3, 4,
  3, 1, 0,
  1, 4, 2,
  2, 3, 0,
  4, 1, 3
]);

maint_start = [8, 6, 10, 7];
maint_end   = [10, 8, 12, 9];
